
%    +---------------+
% 10 | | | | | | | | |
% 9  | | | | | | | | |
% 8  | | | | | | | | |
% 7  | | | | | | | | |
% 6  | | | | | | | | |
% 5  | | | | | | | | |
% 4  | | | | | | | | |
% 3  | |1|1| |4| | | |
% 2  | |1|1|2| |3| | |
% 1  | | | | | | | | |
%    +---------------+
n=8;
m=10;
h=2;
%maxT=15;
boxNumber=4;
boxSideLen = [2, 1, 1, 1];
boxStartX  = [2, 4, 6, 5];
boxStartY  = [2, 2, 2, 3];
